Running HiGHS 1.7.2 (git hash: 5ce7a2753): Copyright (c) 2024 HiGHS under MIT licence terms
Coefficient ranges:
  Matrix [1e+00, 1e+00]
  Cost   [1e+00, 1e+00]
  Bound  [1e+00, 1e+00]
  RHS    [1e+00, 1e+00]
Presolving model
30979 rows, 1530 cols, 63358 nonzeros  0s
16279 rows, 1530 cols, 33958 nonzeros  0s
6026 rows, 1528 cols, 27592 nonzeros  0s
5924 rows, 1528 cols, 27491 nonzeros  0s
Objective function is integral with scale 1

Solving MIP model with:
   5924 rows
   1528 cols (1528 binary, 0 integer, 0 implied int., 0 continuous)
   27491 nonzeros

        Nodes      |    B&B Tree     |            Objective Bounds              |  Dynamic Constraints |       Work      
     Proc. InQueue |  Leaves   Expl. | BestBound       BestSol              Gap |   Cuts   InLp Confl. | LpIters     Time

         0       0         0   0.00%   2               inf                  inf        0      0      0         0     0.8s
         0       0         0   0.00%   4.296932096     inf                  inf        0      0      6     10464     6.0s
         0       0         0   0.00%   4.341233181     inf                  inf        4      4     30     12959    11.5s
 C       0       0         0   0.00%   4.343133589     9                 51.74%        5      5     67     13139    12.1s
         0       0         0   0.00%   4.351146371     9                 51.65%       10     10     67     28442    23.6s

1.7% inactive integer columns, restarting
Model after restart has 5898 rows, 1502 cols (1502 bin., 0 int., 0 impl., 0 cont.), and 27055 nonzeros

         0       0         0   0.00%   4.351146371     9                 51.65%       10      0      0     28442    23.6s
         0       0         0   0.00%   4.351146371     9                 51.65%       10     10      4     29883    24.5s

73.0% inactive integer columns, restarting
Model after restart has 1545 rows, 406 cols (406 bin., 0 int., 0 impl., 0 cont.), and 7005 nonzeros

         0       0         0   0.00%   4.657587889     9                 48.25%        2      0      0     31274    25.5s
         0       0         0   0.00%   4.657587889     9                 48.25%        2      2      6     34261    26.0s
 T      14       0         1   0.01%   6               8                 25.00%      654     15     32     58712    29.6s
       209      17        82   2.34%   6               8                 25.00%     1402     17    637    102184    35.8s
       556      51       225   6.40%   6               8                 25.00%     3216     23   2150    137931    40.8s
       889      71       366   8.06%   6               8                 25.00%     4357     32   3353    176490    45.9s
       927      80       381   8.17%   6               8                 25.00%     5609     31   3751    216755    51.2s
       963      80       399   8.24%   6               8                 25.00%     5719     31   4281    260646    56.3s
       995      80       414   8.28%   6               8                 25.00%     5850     31   4973    304966    61.7s
      1114      84       472   8.33%   6               8                 25.00%     6719     23   5756    353284    68.0s

Restarting search from the root node
Model after restart has 1126 rows, 351 cols (351 bin., 0 int., 0 impl., 0 cont.), and 4996 nonzeros

      1334       0         0   0.00%   6               8                 25.00%       32      0      0    378124    71.6s
      1334       0         0   0.00%   6               8                 25.00%       32     13      4    378989    71.8s
      1441       9        46   2.02%   6               8                 25.00%     3113     36    424    423365    77.2s

        Nodes      |    B&B Tree     |            Objective Bounds              |  Dynamic Constraints |       Work      
     Proc. InQueue |  Leaves   Expl. | BestBound       BestSol              Gap |   Cuts   InLp Confl. | LpIters     Time

      1747      28       181   4.36%   6               8                 25.00%     4258     28   1658    465727    82.9s
      2122      49       353   5.64%   6               8                 25.00%     5097     39   3192    501867    87.9s
      2353      60       460   6.17%   6               8                 25.00%     6153     42   4156    538246    92.9s
      2555      74       552   6.42%   6               8                 25.00%     6206     34   4888    572558    98.2s
      2859      95       691   6.91%   6               8                 25.00%     6546     32   6042    612876   103.4s
      3057     105       784   7.19%   6               8                 25.00%     7626     56   6770    666127   110.6s

Restarting search from the root node
Model after restart has 1126 rows, 351 cols (351 bin., 0 int., 0 impl., 0 cont.), and 4996 nonzeros

      3356       0         0   0.00%   6               8                 25.00%       34      0      0    702976   115.4s
      3356       0         0   0.00%   6               8                 25.00%       34     14      8    703133   115.4s
      3566      16        93   1.54%   6               8                 25.00%     3801     43    742    736219   120.7s
      3864      34       226   3.65%   6               8                 25.00%     4774     27   1965    772302   125.7s
      4243      44       405   4.72%   6               8                 25.00%     5673     20   3438    808343   130.8s
      4468      55       508   6.95%   6               8                 25.00%     6127     32   4230    857035   136.2s
      4873      83       688  10.06%   6               8                 25.00%     6590     41   5931    897435   141.4s
      5279     112       862  10.74%   6               8                 25.00%     7520     38   7944    943820   147.3s
      5610     133      1015  11.20%   6               8                 25.00%     8233     44   9231    981306   152.3s
      5977     160      1184  11.89%   6               8                 25.00%     8487     47   9859     1017k   157.4s
      6285     184      1320  12.09%   6               8                 25.00%     8522     52   9489     1056k   162.9s
      6652     203      1485  12.14%   6               8                 25.00%     8680     41   9413     1093k   167.9s
      6787     210      1545  12.15%   6               8                 25.00%     8661     48   9858     1155k   177.0s
      7196     234      1720  12.22%   6               8                 25.00%     8240     53   9121     1193k   182.1s

Restarting search from the root node
Model after restart has 1126 rows, 351 cols (351 bin., 0 int., 0 impl., 0 cont.), and 4996 nonzeros


        Nodes      |    B&B Tree     |            Objective Bounds              |  Dynamic Constraints |       Work      
     Proc. InQueue |  Leaves   Expl. | BestBound       BestSol              Gap |   Cuts   InLp Confl. | LpIters     Time

      7288       0         0   0.00%   6               8                 25.00%       53      0      0     1202k   183.3s
      7288       0         0   0.00%   6               8                 25.00%       53     17      6     1202k   183.3s
      7498      18        89   1.85%   6               8                 25.00%     3545     49    849     1234k   188.5s
      7852      32       251   2.79%   6               8                 25.00%     4539     58   2260     1269k   193.5s
      8218      57       414   3.81%   6               8                 25.00%     5821     32   3816     1307k   198.6s
      8652      85       613   5.20%   6               8                 25.00%     6338     30   5408     1347k   203.6s
      9059     110       797   5.31%   6               8                 25.00%     7495     42   6864     1386k   208.6s
      9115     118       820   5.37%   6               8                 25.00%     7809     34   6983     1446k   217.7s
      9318     134       912   5.64%   6               8                 25.00%     8556     45   7770     1503k   223.8s
      9722     160      1094   5.80%   6               8                 25.00%     9023     47   9508     1544k   229.0s
     10050     190      1242   5.86%   6               8                 25.00%     9101     34   9422     1580k   234.1s
     10410     216      1406   5.94%   6               8                 25.00%     9389     43   9854     1618k   239.1s
     10768     246      1564   6.01%   6               8                 25.00%     9164     31   9462     1657k   244.2s
     10932     260      1636   6.02%   6               8                 25.00%     8682     31   9601     1715k   254.4s
     11261     276      1783   6.03%   6               8                 25.00%     8036     35   9823     1751k   259.5s
     11640     307      1947   6.11%   6               8                 25.00%     7597     54   9187     1788k   264.5s
     11995     334      2105   6.13%   6               8                 25.00%     7783     44   9842     1826k   269.5s
     12311     350      2246   6.14%   6               8                 25.00%     7490     52   9929     1861k   274.5s
     12342     355      2256   6.14%   6               8                 25.00%     7507     57   9402     1988k   295.0s

Restarting search from the root node
Model after restart has 1126 rows, 351 cols (351 bin., 0 int., 0 impl., 0 cont.), and 4996 nonzeros

     12535       0         0   0.00%   6               8                 25.00%       63      0      0     2005k   296.5s

        Nodes      |    B&B Tree     |            Objective Bounds              |  Dynamic Constraints |       Work      
     Proc. InQueue |  Leaves   Expl. | BestBound       BestSol              Gap |   Cuts   InLp Confl. | LpIters     Time

     12535       0         0   0.00%   6               8                 25.00%       63     25      4     2005k   296.5s

Solving report
  Status            Time limit reached
  Primal bound      8
  Dual bound        6
  Gap               25% (tolerance: 0.01%)
  Solution status   feasible
                    8 (objective)
                    0 (bound viol.)
                    1.37223565844e-13 (int. viol.)
                    0 (row viol.)
  Timing            300.00 (total)
                    0.96 (presolve)
                    0.00 (postsolve)
  Nodes             12541
  LP iterations     2025530 (total)
                    437433 (strong br.)
                    55687 (separation)
                    298814 (heuristics)
ARGS = ["1", "300", "selected_instances/06.txt"]
instance = (50, 490, [[9, 10, 27, 2, 38, 39, 40, 49, 42, 50, 48, 44, 16, 8, 24, 36], [32, 1, 41, 23, 29, 44, 19, 14, 16, 24, 7, 28, 3, 39, 40, 49, 50, 34, 30, 15], [40, 33, 13, 34, 6, 46, 26, 2, 23, 12, 14, 16, 37, 24, 25, 35, 28, 47, 27, 39, 21], [32, 31, 44, 16, 18, 25, 36, 20, 43, 49, 13, 42, 22, 6, 30], [35, 28, 10, 27, 45, 39, 40, 49, 33, 22, 30, 17, 41, 23, 12, 44, 14, 16, 37, 18, 25], [41, 23, 16, 3, 36, 28, 47, 10, 21, 11, 43, 40, 22, 34, 4, 46, 48, 26], [37, 25, 28, 9, 10, 45, 39, 21, 2, 34, 46, 23, 29, 31], [15, 23, 29, 44, 19, 25, 36, 28, 20, 45, 39, 21, 43, 40, 1, 34], [1, 7, 41, 23, 29, 12, 31, 19, 37, 25, 35, 36, 28, 47, 27, 38, 43, 11, 40, 49, 50, 34], [26, 17, 32, 1, 23, 12, 5, 44, 16, 7, 25, 6, 27, 11, 49, 22, 42, 34, 46, 15], [12, 19, 37, 36, 28, 47, 27, 45, 6, 38, 39, 43, 10, 9, 49, 13, 22, 42, 15], [11, 40, 10, 13, 9, 42, 34, 17, 3, 23, 31, 19, 18, 25, 5, 20, 47, 27], [41, 23, 3, 31, 44, 16, 12, 25, 28, 45, 39, 49, 33, 4, 11, 22, 42, 50, 34, 30], [32, 2, 41, 44, 19, 37, 35, 3, 47, 38, 39, 21, 43, 49, 5, 34], [8, 29, 31, 44, 16, 24, 28, 27, 45, 39, 21, 43, 33, 22, 42, 34, 30, 46, 48, 11, 10, 2], [18, 25, 15, 6, 4, 13, 2, 10, 47, 27, 45, 38, 21, 43, 40, 33, 34, 3, 48, 17, 1, 5, 41, 29, 31], [31, 10, 19, 37, 47, 21, 12, 33, 22, 42, 50, 5, 48, 16, 41], [16, 25, 36, 4, 20, 47, 39, 21, 40, 33, 42, 50, 30, 46, 12, 26, 32, 5, 44, 19], [17, 37, 24, 35, 11, 2, 9, 20, 8, 14, 38, 39, 21, 22, 42, 46, 12, 48, 26, 32, 18, 44], [26, 23, 31, 18, 19, 24, 25, 35, 28, 4, 27, 8, 45, 39, 49, 42, 12], [49, 22, 42, 50, 30, 48, 7, 26, 18, 16, 19, 32, 17, 23, 29, 15, 31, 6, 24, 25, 35, 8, 14, 28, 27, 45, 38, 39, 3], [21, 38, 33, 5, 46, 19, 17, 15, 6, 13, 4, 41, 11, 10, 31], [6, 13, 43, 40, 2, 10, 20, 9, 8, 46, 21, 3, 32, 41, 12, 29, 31, 44, 37, 5, 35, 7], [19, 15, 44, 2, 20, 28, 21, 3, 43, 40, 1, 50], [37, 7, 18, 16, 35, 36, 47, 4, 27, 13, 45, 38, 10, 20, 43, 9, 8, 30, 46, 21, 3, 26, 12, 31, 5], [47, 10, 20, 39, 34, 21, 3, 41, 29, 31, 44, 25, 18, 19, 35, 36, 6], [32, 1, 5, 31, 25, 37, 16, 15, 11, 47, 10, 20, 9, 38, 39, 43, 34, 21, 30, 3, 48, 12], [5, 7, 47, 45, 15, 39, 6, 13, 11, 40, 2, 20, 9, 42, 24, 8, 34, 21, 3, 32, 29, 37], [15, 2, 9, 8, 21, 23, 26, 48, 28, 32, 7, 16, 31], [41, 44, 21, 37, 36, 47, 5, 38, 39, 40, 25, 49, 18, 33, 50, 34, 15, 46, 4, 13, 2, 27], [17, 15, 37, 13, 4, 27, 20, 9, 40, 33, 21, 42, 34, 12, 23, 26, 22, 32, 25, 7, 16, 44, 29], [4, 46, 2, 10, 48, 27, 14, 21, 37, 35, 23, 39, 28, 18, 19, 31, 33, 29, 42, 50], [3, 47, 45, 38, 40, 22, 49, 5, 34, 18, 16, 46, 31, 17, 15, 30, 13, 44, 32, 35], [50, 46, 3, 12, 26, 41, 33, 28, 7, 16, 31, 35, 15, 30, 6, 13, 10, 2, 27, 45, 9, 38, 8, 14], [5, 40, 49, 25, 19, 42, 46, 20, 9, 14, 32, 44, 34, 21, 3, 36, 23, 26, 33], [25, 18, 30, 6, 45, 4, 39, 11, 43, 40, 9, 49, 8, 42, 35, 26, 44, 1], [7, 25, 19, 31, 17, 30, 11, 44, 27, 9, 14, 32, 47, 3, 45, 23, 40, 49, 42, 5, 28], [50, 1, 22, 33, 48, 25, 16, 19, 30, 11, 27, 9, 14, 47, 34, 21, 43], [26, 1, 5, 28, 36, 7, 18, 19, 15, 30, 13, 11, 2, 27, 20, 40, 8, 14, 32, 42, 21, 3], [3, 35, 12, 23, 1, 33, 5, 28, 36, 50, 18, 16, 31, 46, 30, 6, 39, 2, 9, 41, 8, 24, 37], [30, 6, 13, 43, 2, 9, 14, 50, 46, 34, 48, 23, 26, 44, 22, 40, 5, 16, 17], [50, 21, 46, 35, 12, 1, 44, 28, 36, 18, 19, 31, 17, 15, 4, 13, 11, 39, 10, 20, 37, 32, 49], [23, 41, 44, 36, 25, 16, 47, 15, 45, 6, 4, 11, 27, 9, 24, 8, 14, 48, 38], [15, 30, 4, 13, 43, 10, 2, 24, 8, 37, 14, 47, 42, 49, 50, 35, 23, 41, 46, 26, 1, 33, 5, 36, 18, 19, 31], [33, 5, 28, 36, 25, 7, 16, 49, 15, 13, 43, 11, 48, 20, 8, 37, 34, 21], [32, 34, 42, 3, 35, 23, 41, 22, 33, 40, 7, 25, 18, 19, 44, 15, 30, 6, 10], [26, 33, 28, 25, 18, 48, 16, 44, 17, 30, 6, 43, 11, 27, 9, 37, 14, 38, 3, 12], [32, 21, 38, 47, 41, 1, 45, 50, 16, 19, 29, 17, 15, 6, 43, 27], [21, 35, 1, 33, 5, 45, 36, 44, 30, 4, 13, 11, 2, 10, 20, 9, 37, 14, 42], [34, 42, 21, 38, 41, 1, 40, 18, 44, 17, 48, 30, 13, 2, 9, 24, 32]], 30)
round.(value.(model[:x])) = [0.0 1.0 -0.0 0.0 -0.0 -0.0 -0.0 -0.0 0.0 0.0 0.0 0.0 0.0 0.0 0.0 0.0 0.0 0.0 0.0 0.0 0.0 0.0 0.0 0.0 0.0 0.0 0.0 0.0 0.0 0.0; 0.0 0.0 0.0 0.0 1.0 0.0 -0.0 0.0 0.0 0.0 0.0 0.0 0.0 0.0 0.0 0.0 0.0 0.0 0.0 0.0 0.0 0.0 0.0 0.0 0.0 0.0 0.0 0.0 0.0 0.0; 0.0 -0.0 0.0 0.0 0.0 0.0 1.0 0.0 0.0 0.0 0.0 0.0 0.0 0.0 0.0 0.0 0.0 0.0 0.0 0.0 0.0 0.0 0.0 0.0 0.0 0.0 0.0 0.0 0.0 0.0; 0.0 -0.0 0.0 1.0 0.0 -0.0 0.0 0.0 0.0 0.0 0.0 0.0 0.0 0.0 0.0 0.0 0.0 0.0 0.0 0.0 0.0 0.0 0.0 0.0 0.0 0.0 0.0 0.0 0.0 0.0; 0.0 0.0 0.0 0.0 1.0 0.0 -0.0 0.0 0.0 0.0 0.0 0.0 0.0 0.0 0.0 0.0 0.0 0.0 0.0 0.0 0.0 0.0 0.0 0.0 0.0 0.0 0.0 0.0 0.0 0.0; -0.0 0.0 0.0 0.0 0.0 1.0 0.0 -0.0 0.0 0.0 0.0 0.0 0.0 0.0 0.0 0.0 0.0 0.0 0.0 0.0 0.0 0.0 0.0 0.0 0.0 0.0 0.0 0.0 0.0 0.0; 0.0 -0.0 0.0 0.0 0.0 1.0 0.0 0.0 0.0 0.0 0.0 0.0 0.0 0.0 0.0 0.0 0.0 0.0 0.0 0.0 0.0 0.0 0.0 0.0 0.0 0.0 0.0 0.0 0.0 0.0; 0.0 0.0 0.0 0.0 0.0 1.0 0.0 0.0 0.0 0.0 0.0 0.0 0.0 0.0 0.0 0.0 0.0 0.0 0.0 0.0 0.0 0.0 0.0 0.0 0.0 0.0 0.0 0.0 0.0 0.0; 0.0 0.0 0.0 -0.0 0.0 0.0 1.0 0.0 0.0 0.0 0.0 0.0 0.0 0.0 0.0 0.0 0.0 0.0 0.0 0.0 0.0 0.0 0.0 0.0 0.0 0.0 0.0 0.0 0.0 0.0; 0.0 -0.0 0.0 0.0 -0.0 0.0 0.0 1.0 0.0 0.0 0.0 0.0 0.0 0.0 0.0 0.0 0.0 0.0 0.0 0.0 0.0 0.0 0.0 0.0 0.0 0.0 0.0 0.0 0.0 0.0; 0.0 0.0 1.0 0.0 -0.0 0.0 0.0 0.0 0.0 0.0 0.0 0.0 0.0 0.0 0.0 0.0 0.0 0.0 0.0 0.0 0.0 0.0 0.0 0.0 0.0 0.0 0.0 0.0 0.0 0.0; -0.0 1.0 0.0 0.0 -0.0 0.0 0.0 0.0 0.0 0.0 0.0 0.0 0.0 0.0 0.0 0.0 0.0 0.0 0.0 0.0 0.0 0.0 0.0 0.0 0.0 0.0 0.0 0.0 0.0 0.0; 0.0 0.0 0.0 0.0 1.0 0.0 -0.0 0.0 0.0 0.0 0.0 0.0 0.0 0.0 0.0 0.0 0.0 0.0 0.0 0.0 0.0 0.0 0.0 0.0 0.0 0.0 0.0 0.0 0.0 0.0; 0.0 -0.0 0.0 1.0 0.0 0.0 0.0 0.0 0.0 0.0 0.0 0.0 0.0 0.0 0.0 0.0 0.0 0.0 0.0 0.0 0.0 0.0 0.0 0.0 0.0 0.0 0.0 0.0 0.0 0.0; 0.0 0.0 0.0 1.0 0.0 -0.0 0.0 0.0 0.0 0.0 0.0 0.0 0.0 0.0 0.0 0.0 0.0 0.0 0.0 0.0 0.0 0.0 0.0 0.0 0.0 0.0 0.0 0.0 0.0 0.0; 1.0 0.0 0.0 0.0 0.0 0.0 0.0 0.0 0.0 0.0 0.0 0.0 0.0 0.0 0.0 0.0 0.0 0.0 0.0 0.0 0.0 0.0 0.0 0.0 0.0 0.0 0.0 0.0 0.0 0.0; 0.0 0.0 0.0 0.0 0.0 1.0 0.0 0.0 0.0 0.0 0.0 0.0 0.0 0.0 0.0 0.0 0.0 0.0 0.0 0.0 0.0 0.0 0.0 0.0 0.0 0.0 0.0 0.0 0.0 0.0; 0.0 0.0 0.0 0.0 0.0 1.0 -0.0 0.0 0.0 0.0 0.0 0.0 0.0 0.0 0.0 0.0 0.0 0.0 0.0 0.0 0.0 0.0 0.0 0.0 0.0 0.0 0.0 0.0 0.0 0.0; 1.0 0.0 -0.0 0.0 0.0 -0.0 0.0 0.0 0.0 0.0 0.0 0.0 0.0 0.0 0.0 0.0 0.0 0.0 0.0 0.0 0.0 0.0 0.0 0.0 0.0 0.0 0.0 0.0 0.0 0.0; 0.0 0.0 0.0 0.0 1.0 -0.0 -0.0 0.0 0.0 0.0 0.0 0.0 0.0 0.0 0.0 0.0 0.0 0.0 0.0 0.0 0.0 0.0 0.0 0.0 0.0 0.0 0.0 0.0 0.0 0.0; 0.0 0.0 0.0 0.0 1.0 0.0 -0.0 0.0 0.0 0.0 0.0 0.0 0.0 0.0 0.0 0.0 0.0 0.0 0.0 0.0 0.0 0.0 0.0 0.0 0.0 0.0 0.0 0.0 0.0 0.0; 0.0 0.0 0.0 0.0 -0.0 -0.0 1.0 0.0 0.0 0.0 0.0 0.0 0.0 0.0 0.0 0.0 0.0 0.0 0.0 0.0 0.0 0.0 0.0 0.0 0.0 0.0 0.0 0.0 0.0 0.0; 1.0 0.0 0.0 0.0 0.0 0.0 0.0 0.0 0.0 0.0 0.0 0.0 0.0 0.0 0.0 0.0 0.0 0.0 0.0 0.0 0.0 0.0 0.0 0.0 0.0 0.0 0.0 0.0 0.0 0.0; 0.0 0.0 0.0 0.0 0.0 0.0 0.0 1.0 0.0 0.0 0.0 0.0 0.0 0.0 0.0 0.0 0.0 0.0 0.0 0.0 0.0 0.0 0.0 0.0 0.0 0.0 0.0 0.0 0.0 0.0; 0.0 -0.0 1.0 0.0 0.0 0.0 0.0 0.0 0.0 0.0 0.0 0.0 0.0 0.0 0.0 0.0 0.0 0.0 0.0 0.0 0.0 0.0 0.0 0.0 0.0 0.0 0.0 0.0 0.0 0.0; -0.0 0.0 -0.0 1.0 0.0 -0.0 0.0 0.0 0.0 0.0 0.0 0.0 0.0 0.0 0.0 0.0 0.0 0.0 0.0 0.0 0.0 0.0 0.0 0.0 0.0 0.0 0.0 0.0 0.0 0.0; 0.0 0.0 0.0 0.0 -0.0 1.0 0.0 0.0 0.0 0.0 0.0 0.0 0.0 0.0 0.0 0.0 0.0 0.0 0.0 0.0 0.0 0.0 0.0 0.0 0.0 0.0 0.0 0.0 0.0 0.0; 1.0 0.0 0.0 0.0 0.0 -0.0 0.0 0.0 0.0 0.0 0.0 0.0 0.0 0.0 0.0 0.0 0.0 0.0 0.0 0.0 0.0 0.0 0.0 0.0 0.0 0.0 0.0 0.0 0.0 0.0; 0.0 1.0 0.0 -0.0 0.0 0.0 0.0 0.0 0.0 0.0 0.0 0.0 0.0 0.0 0.0 0.0 0.0 0.0 0.0 0.0 0.0 0.0 0.0 0.0 0.0 0.0 0.0 0.0 0.0 0.0; 0.0 -0.0 0.0 0.0 0.0 0.0 1.0 0.0 0.0 0.0 0.0 0.0 0.0 0.0 0.0 0.0 0.0 0.0 0.0 0.0 0.0 0.0 0.0 0.0 0.0 0.0 0.0 0.0 0.0 0.0; 0.0 0.0 -0.0 0.0 -0.0 -0.0 -0.0 1.0 0.0 0.0 0.0 0.0 0.0 0.0 0.0 0.0 0.0 0.0 0.0 0.0 0.0 0.0 0.0 0.0 0.0 0.0 0.0 0.0 0.0 0.0; 0.0 0.0 1.0 0.0 0.0 0.0 -0.0 0.0 0.0 0.0 0.0 0.0 0.0 0.0 0.0 0.0 0.0 0.0 0.0 0.0 0.0 0.0 0.0 0.0 0.0 0.0 0.0 0.0 0.0 0.0; 0.0 1.0 0.0 0.0 -0.0 0.0 -0.0 0.0 0.0 0.0 0.0 0.0 0.0 0.0 0.0 0.0 0.0 0.0 0.0 0.0 0.0 0.0 0.0 0.0 0.0 0.0 0.0 0.0 0.0 0.0; 0.0 0.0 1.0 0.0 0.0 0.0 0.0 0.0 0.0 0.0 0.0 0.0 0.0 0.0 0.0 0.0 0.0 0.0 0.0 0.0 0.0 0.0 0.0 0.0 0.0 0.0 0.0 0.0 0.0 0.0; 0.0 -0.0 0.0 0.0 0.0 0.0 0.0 1.0 0.0 0.0 0.0 0.0 0.0 0.0 0.0 0.0 0.0 0.0 0.0 0.0 0.0 0.0 0.0 0.0 0.0 0.0 0.0 0.0 0.0 0.0; -0.0 0.0 0.0 0.0 1.0 0.0 0.0 0.0 0.0 0.0 0.0 0.0 0.0 0.0 0.0 0.0 0.0 0.0 0.0 0.0 0.0 0.0 0.0 0.0 0.0 0.0 0.0 0.0 0.0 0.0; 0.0 1.0 -0.0 0.0 0.0 0.0 0.0 -0.0 0.0 0.0 0.0 0.0 0.0 0.0 0.0 0.0 0.0 0.0 0.0 0.0 0.0 0.0 0.0 0.0 0.0 0.0 0.0 0.0 0.0 0.0; 0.0 0.0 0.0 -0.0 0.0 0.0 -0.0 1.0 0.0 0.0 0.0 0.0 0.0 0.0 0.0 0.0 0.0 0.0 0.0 0.0 0.0 0.0 0.0 0.0 0.0 0.0 0.0 0.0 0.0 0.0; 0.0 -0.0 0.0 0.0 0.0 0.0 0.0 1.0 0.0 0.0 0.0 0.0 0.0 0.0 0.0 0.0 0.0 0.0 0.0 0.0 0.0 0.0 0.0 0.0 0.0 0.0 0.0 0.0 0.0 0.0; 0.0 0.0 1.0 0.0 0.0 0.0 0.0 0.0 0.0 0.0 0.0 0.0 0.0 0.0 0.0 0.0 0.0 0.0 0.0 0.0 0.0 0.0 0.0 0.0 0.0 0.0 0.0 0.0 0.0 0.0; 0.0 0.0 0.0 0.0 0.0 0.0 0.0 1.0 0.0 0.0 0.0 0.0 0.0 0.0 0.0 0.0 0.0 0.0 0.0 0.0 0.0 0.0 0.0 0.0 0.0 0.0 0.0 0.0 0.0 0.0; 0.0 0.0 0.0 0.0 -0.0 0.0 1.0 0.0 0.0 0.0 0.0 0.0 0.0 0.0 0.0 0.0 0.0 0.0 0.0 0.0 0.0 0.0 0.0 0.0 0.0 0.0 0.0 0.0 0.0 0.0; 0.0 1.0 0.0 0.0 -0.0 0.0 0.0 0.0 0.0 0.0 0.0 0.0 0.0 0.0 0.0 0.0 0.0 0.0 0.0 0.0 0.0 0.0 0.0 0.0 0.0 0.0 0.0 0.0 0.0 0.0; 0.0 -0.0 1.0 0.0 0.0 0.0 -0.0 0.0 0.0 0.0 0.0 0.0 0.0 0.0 0.0 0.0 0.0 0.0 0.0 0.0 0.0 0.0 0.0 0.0 0.0 0.0 0.0 0.0 0.0 0.0; 0.0 0.0 0.0 -0.0 0.0 0.0 0.0 1.0 0.0 0.0 0.0 0.0 0.0 0.0 0.0 0.0 0.0 0.0 0.0 0.0 0.0 0.0 0.0 0.0 0.0 0.0 0.0 0.0 0.0 0.0; 0.0 -0.0 0.0 0.0 1.0 -0.0 0.0 -0.0 0.0 0.0 0.0 0.0 0.0 0.0 0.0 0.0 0.0 0.0 0.0 0.0 0.0 0.0 0.0 0.0 0.0 0.0 0.0 0.0 0.0 0.0; -0.0 -0.0 0.0 -0.0 1.0 0.0 0.0 0.0 0.0 0.0 0.0 0.0 0.0 0.0 0.0 0.0 0.0 0.0 0.0 0.0 0.0 0.0 0.0 0.0 0.0 0.0 0.0 0.0 0.0 0.0; 0.0 0.0 0.0 0.0 0.0 -0.0 1.0 0.0 0.0 0.0 0.0 0.0 0.0 0.0 0.0 0.0 0.0 0.0 0.0 0.0 0.0 0.0 0.0 0.0 0.0 0.0 0.0 0.0 0.0 0.0; 0.0 0.0 0.0 0.0 0.0 1.0 0.0 -0.0 0.0 0.0 0.0 0.0 0.0 0.0 0.0 0.0 0.0 0.0 0.0 0.0 0.0 0.0 0.0 0.0 0.0 0.0 0.0 0.0 0.0 0.0; 1.0 0.0 0.0 0.0 0.0 0.0 0.0 0.0 0.0 0.0 0.0 0.0 0.0 0.0 0.0 0.0 0.0 0.0 0.0 0.0 0.0 0.0 0.0 0.0 0.0 0.0 0.0 0.0 0.0 0.0]
round.(value.(model[:y])) = [1.0, 1.0, 1.0, 1.0, 1.0, 1.0, 1.0, 1.0, 0.0, 0.0, 0.0, 0.0, 0.0, 0.0, 0.0, 0.0, 0.0, 0.0, 0.0, 0.0, 0.0, 0.0, 0.0, 0.0, 0.0, 0.0, 0.0, 0.0, 0.0, 0.0]
(n, m, A) = (50, 490, [[9, 10, 27, 2, 38, 39, 40, 49, 42, 50, 48, 44, 16, 8, 24, 36], [32, 1, 41, 23, 29, 44, 19, 14, 16, 24, 7, 28, 3, 39, 40, 49, 50, 34, 30, 15], [40, 33, 13, 34, 6, 46, 26, 2, 23, 12, 14, 16, 37, 24, 25, 35, 28, 47, 27, 39, 21], [32, 31, 44, 16, 18, 25, 36, 20, 43, 49, 13, 42, 22, 6, 30], [35, 28, 10, 27, 45, 39, 40, 49, 33, 22, 30, 17, 41, 23, 12, 44, 14, 16, 37, 18, 25], [41, 23, 16, 3, 36, 28, 47, 10, 21, 11, 43, 40, 22, 34, 4, 46, 48, 26], [37, 25, 28, 9, 10, 45, 39, 21, 2, 34, 46, 23, 29, 31], [15, 23, 29, 44, 19, 25, 36, 28, 20, 45, 39, 21, 43, 40, 1, 34], [1, 7, 41, 23, 29, 12, 31, 19, 37, 25, 35, 36, 28, 47, 27, 38, 43, 11, 40, 49, 50, 34], [26, 17, 32, 1, 23, 12, 5, 44, 16, 7, 25, 6, 27, 11, 49, 22, 42, 34, 46, 15], [12, 19, 37, 36, 28, 47, 27, 45, 6, 38, 39, 43, 10, 9, 49, 13, 22, 42, 15], [11, 40, 10, 13, 9, 42, 34, 17, 3, 23, 31, 19, 18, 25, 5, 20, 47, 27], [41, 23, 3, 31, 44, 16, 12, 25, 28, 45, 39, 49, 33, 4, 11, 22, 42, 50, 34, 30], [32, 2, 41, 44, 19, 37, 35, 3, 47, 38, 39, 21, 43, 49, 5, 34], [8, 29, 31, 44, 16, 24, 28, 27, 45, 39, 21, 43, 33, 22, 42, 34, 30, 46, 48, 11, 10, 2], [18, 25, 15, 6, 4, 13, 2, 10, 47, 27, 45, 38, 21, 43, 40, 33, 34, 3, 48, 17, 1, 5, 41, 29, 31], [31, 10, 19, 37, 47, 21, 12, 33, 22, 42, 50, 5, 48, 16, 41], [16, 25, 36, 4, 20, 47, 39, 21, 40, 33, 42, 50, 30, 46, 12, 26, 32, 5, 44, 19], [17, 37, 24, 35, 11, 2, 9, 20, 8, 14, 38, 39, 21, 22, 42, 46, 12, 48, 26, 32, 18, 44], [26, 23, 31, 18, 19, 24, 25, 35, 28, 4, 27, 8, 45, 39, 49, 42, 12], [49, 22, 42, 50, 30, 48, 7, 26, 18, 16, 19, 32, 17, 23, 29, 15, 31, 6, 24, 25, 35, 8, 14, 28, 27, 45, 38, 39, 3], [21, 38, 33, 5, 46, 19, 17, 15, 6, 13, 4, 41, 11, 10, 31], [6, 13, 43, 40, 2, 10, 20, 9, 8, 46, 21, 3, 32, 41, 12, 29, 31, 44, 37, 5, 35, 7], [19, 15, 44, 2, 20, 28, 21, 3, 43, 40, 1, 50], [37, 7, 18, 16, 35, 36, 47, 4, 27, 13, 45, 38, 10, 20, 43, 9, 8, 30, 46, 21, 3, 26, 12, 31, 5], [47, 10, 20, 39, 34, 21, 3, 41, 29, 31, 44, 25, 18, 19, 35, 36, 6], [32, 1, 5, 31, 25, 37, 16, 15, 11, 47, 10, 20, 9, 38, 39, 43, 34, 21, 30, 3, 48, 12], [5, 7, 47, 45, 15, 39, 6, 13, 11, 40, 2, 20, 9, 42, 24, 8, 34, 21, 3, 32, 29, 37], [15, 2, 9, 8, 21, 23, 26, 48, 28, 32, 7, 16, 31], [41, 44, 21, 37, 36, 47, 5, 38, 39, 40, 25, 49, 18, 33, 50, 34, 15, 46, 4, 13, 2, 27], [17, 15, 37, 13, 4, 27, 20, 9, 40, 33, 21, 42, 34, 12, 23, 26, 22, 32, 25, 7, 16, 44, 29], [4, 46, 2, 10, 48, 27, 14, 21, 37, 35, 23, 39, 28, 18, 19, 31, 33, 29, 42, 50], [3, 47, 45, 38, 40, 22, 49, 5, 34, 18, 16, 46, 31, 17, 15, 30, 13, 44, 32, 35], [50, 46, 3, 12, 26, 41, 33, 28, 7, 16, 31, 35, 15, 30, 6, 13, 10, 2, 27, 45, 9, 38, 8, 14], [5, 40, 49, 25, 19, 42, 46, 20, 9, 14, 32, 44, 34, 21, 3, 36, 23, 26, 33], [25, 18, 30, 6, 45, 4, 39, 11, 43, 40, 9, 49, 8, 42, 35, 26, 44, 1], [7, 25, 19, 31, 17, 30, 11, 44, 27, 9, 14, 32, 47, 3, 45, 23, 40, 49, 42, 5, 28], [50, 1, 22, 33, 48, 25, 16, 19, 30, 11, 27, 9, 14, 47, 34, 21, 43], [26, 1, 5, 28, 36, 7, 18, 19, 15, 30, 13, 11, 2, 27, 20, 40, 8, 14, 32, 42, 21, 3], [3, 35, 12, 23, 1, 33, 5, 28, 36, 50, 18, 16, 31, 46, 30, 6, 39, 2, 9, 41, 8, 24, 37], [30, 6, 13, 43, 2, 9, 14, 50, 46, 34, 48, 23, 26, 44, 22, 40, 5, 16, 17], [50, 21, 46, 35, 12, 1, 44, 28, 36, 18, 19, 31, 17, 15, 4, 13, 11, 39, 10, 20, 37, 32, 49], [23, 41, 44, 36, 25, 16, 47, 15, 45, 6, 4, 11, 27, 9, 24, 8, 14, 48, 38], [15, 30, 4, 13, 43, 10, 2, 24, 8, 37, 14, 47, 42, 49, 50, 35, 23, 41, 46, 26, 1, 33, 5, 36, 18, 19, 31], [33, 5, 28, 36, 25, 7, 16, 49, 15, 13, 43, 11, 48, 20, 8, 37, 34, 21], [32, 34, 42, 3, 35, 23, 41, 22, 33, 40, 7, 25, 18, 19, 44, 15, 30, 6, 10], [26, 33, 28, 25, 18, 48, 16, 44, 17, 30, 6, 43, 11, 27, 9, 37, 14, 38, 3, 12], [32, 21, 38, 47, 41, 1, 45, 50, 16, 19, 29, 17, 15, 6, 43, 27], [21, 35, 1, 33, 5, 45, 36, 44, 30, 4, 13, 11, 2, 10, 20, 9, 37, 14, 42], [34, 42, 21, 38, 41, 1, 40, 18, 44, 17, 48, 30, 13, 2, 9, 24, 32]])
 1 (2), 2 (5), 3 (7), 4 (4), 5 (5), 6 (6), 7 (6), 8 (6), 9 (7), 10 (8), 11 (3), 12 (2), 13 (5), 14 (4), 15 (4), 16 (1), 17 (6), 18 (6), 19 (1), 20 (5), 21 (5), 22 (7), 23 (1), 24 (8), 25 (3), 26 (4), 27 (6), 28 (1), 29 (2), 30 (7), 31 (8), 32 (3), 33 (2), 34 (3), 35 (8), 36 (5), 37 (2), 38 (8), 39 (8), 40 (3), 41 (8), 42 (7), 43 (2), 44 (3), 45 (8), 46 (5), 47 (5), 48 (7), 49 (6), 50 (1),
objective_bound(model) = 6.000000000000038
objective_value(model) = 8.0
